SCIP version 5.0.0 [precision: 8 byte] [memory: block] [mode: optimized] [LP solver: NONE] [GitHash: 3bbd232]
Copyright (C) 2002-2017 Konrad-Zuse-Zentrum fuer Informationstechnik Berlin (ZIB)

External codes: 
  Readline EditLine w  GNU library for command line editing (gnu.org/s/readline)
  CppAD 20160000.1     Algorithmic Differentiation of C++ algorithms developed by B. Bell (www.coin-or.org/CppAD)
  ZLIB 1.2.5           General purpose compression library by J. Gailly and M. Adler (zlib.net)
  GMP 6.1.2            GNU Multiple Precision Arithmetic Library developed by T. Granlund (gmplib.org)

user parameter file <scip.set> not found - using default parameters

read problem <../../Split_data/output/biodeg/7/1_sample_biodeg.logreg>
============

File name	:	../../Split_data/output/biodeg/7/1_sample_biodeg.logreg
Problem name 	:	1_sample_biodeg
Number of data	:	844
Number of var	:	41
The given data has linear independence

[dim=1] time: 0.044833
[dim=2] time: 0.089479
[dim=3] time: 0.128138
[dim=4] time: 0.160203
[dim=5] time: 0.192011
[dim=6] time: 0.22407
[dim=7] time: 0.254686
[dim=8] time: 0.28529
[dim=9] time: 0.314357
[dim=10] time: 0.34876
[dim=11] time: 0.375779
[dim=12] time: 0.401843
[dim=13] time: 0.428262
[dim=14] time: 0.451949
[dim=15] time: 0.476526
[dim=16] time: 0.500388
[dim=17] time: 0.524058
[dim=18] time: 0.541743
[dim=19] time: 0.559166
[dim=20] time: 0.576603
[dim=21] time: 0.59959
[dim=22] time: 0.623482
[dim=23] time: 0.668045
[dim=24] time: 0.682414
[dim=25] Time of forward = 0.703505sec.
AIC: 538.959
k: 24

[dim=41] time: 0.147388
[dim=40] time: 0.194777
[dim=39] time: 0.249406
[dim=38] time: 0.300291
[dim=37] time: 0.343593
[dim=36] time: 0.384838
[dim=35] time: 0.454397
[dim=34] time: 0.530601
[dim=33] time: 0.577433
[dim=32] time: 0.618484
[dim=31] time: 0.653885
[dim=30] time: 0.689623
[dim=29] time: 0.72295
[dim=28] time: 0.755237
[dim=27] time: 0.789125
[dim=26] time: 0.846005
[dim=25] time: 0.875308
[dim=24] time: 0.898262
[dim=23] time: 0.9229
[dim=22] Time of backward = 0.94597sec.
AIC: 537.56
k: 23
